data/lp_files/pEFS/55_3.lp
\ Model foo
\ LP format - for model browsing. Use MPS format to capture full model detail.
Minimize
  z
Subject To
 allocateEach[1]: x[1,1] + x[2,1] + x[3,1] = 1
 allocateEach[2]: x[1,2] + x[2,2] + x[3,2] = 1
 allocateEach[3]: x[1,3] + x[2,3] + x[3,3] = 1
 allocateEach[4]: x[1,4] + x[2,4] + x[3,4] = 1
 allocateEach[5]: x[1,5] + x[2,5] + x[3,5] = 1
 allocateEach[6]: x[1,6] + x[2,6] + x[3,6] = 1
 allocateEach[7]: x[1,7] + x[2,7] + x[3,7] = 1
 allocateEach[8]: x[1,8] + x[2,8] + x[3,8] = 1
 allocateEach[9]: x[1,9] + x[2,9] + x[3,9] = 1
 allocateEach[10]: x[1,10] + x[2,10] + x[3,10] = 1
 allocateEach[11]: x[1,11] + x[2,11] + x[3,11] = 1
 allocateEach[12]: x[1,12] + x[2,12] + x[3,12] = 1
 allocateEach[13]: x[1,13] + x[2,13] + x[3,13] = 1
 allocateEach[14]: x[1,14] + x[2,14] + x[3,14] = 1
 allocateEach[15]: x[1,15] + x[2,15] + x[3,15] = 1
 allocateAllCash: cashProportion[1] + cashProportion[2] + cashProportion[3]
   = 1
 findWorstP[1,2]: z + 0.0243323803151043 cashProportion[1]
   - 0.0243323803151043 cashProportion[2] + 0.0283958878277267 x[1,1]
   + 0.0390534704057424 x[1,2] + 0.0391629661171604 x[1,3]
   + 0.0808564997870917 x[1,4] + 0.0603199708011436 x[1,5]
   + 0.0820122878520591 x[1,6] + 0.0708437252874262 x[1,7]
   + 0.1104203418699434 x[1,8] + 0.00867449358233469 x[1,9]
   + 0.0784962588965265 x[1,10] + 0.0692134558063142 x[1,11]
   + 0.1063446681671634 x[1,12] + 0.1202506235172456 x[1,13]
   + 0.00607092888861853 x[1,14] + 0.0755520408783989 x[1,15]
   - 0.0283958878277267 x[2,1] - 0.0390534704057424 x[2,2]
   - 0.0391629661171604 x[2,3] - 0.0808564997870917 x[2,4]
   - 0.0603199708011436 x[2,5] - 0.0820122878520591 x[2,6]
   - 0.0708437252874262 x[2,7] - 0.1104203418699434 x[2,8]
   - 0.00867449358233469 x[2,9] - 0.0784962588965265 x[2,10]
   - 0.0692134558063142 x[2,11] - 0.1063446681671634 x[2,12]
   - 0.1202506235172456 x[2,13] - 0.00607092888861853 x[2,14]
   - 0.0755520408783989 x[2,15] >= 0
 findWorstP[1,3]: z + 0.0243323803151043 cashProportion[1]
   - 0.0243323803151043 cashProportion[3] + 0.0283958878277267 x[1,1]
   + 0.0390534704057424 x[1,2] + 0.0391629661171604 x[1,3]
   + 0.0808564997870917 x[1,4] + 0.0603199708011436 x[1,5]
   + 0.0820122878520591 x[1,6] + 0.0708437252874262 x[1,7]
   + 0.1104203418699434 x[1,8] + 0.00867449358233469 x[1,9]
   + 0.0784962588965265 x[1,10] + 0.0692134558063142 x[1,11]
   + 0.1063446681671634 x[1,12] + 0.1202506235172456 x[1,13]
   + 0.00607092888861853 x[1,14] + 0.0755520408783989 x[1,15]
   - 0.0283958878277267 x[3,1] - 0.0390534704057424 x[3,2]
   - 0.0391629661171604 x[3,3] - 0.0808564997870917 x[3,4]
   - 0.0603199708011436 x[3,5] - 0.0820122878520591 x[3,6]
   - 0.0708437252874262 x[3,7] - 0.1104203418699434 x[3,8]
   - 0.00867449358233469 x[3,9] - 0.0784962588965265 x[3,10]
   - 0.0692134558063142 x[3,11] - 0.1063446681671634 x[3,12]
   - 0.1202506235172456 x[3,13] - 0.00607092888861853 x[3,14]
   - 0.0755520408783989 x[3,15] >= 0
 findWorstP[2,1]: z - 0.0254304096839 cashProportion[1]
   + 0.0254304096839 cashProportion[2] - 0.0463977824682756 x[1,1]
   - 0.0685858149174783 x[1,2] - 0.1077105002161585 x[1,3]
   - 0.091803778958879 x[1,4] - 0.0332756910713832 x[1,5]
   - 0.0182590341530402 x[1,6] - 0.0504157871983318 x[1,7]
   - 0.0530478346006154 x[1,8] - 0.0606642423009435 x[1,9]
   - 0.1104061236426519 x[1,10] - 0.0549805457365918 x[1,11]
   - 0.007374818808331 x[1,12] - 0.1112580423670625 x[1,13]
   - 0.067899193856013 x[1,14] - 0.0924904 x[1,15]
   + 0.0463977824682756 x[2,1] + 0.0685858149174783 x[2,2]
   + 0.1077105002161585 x[2,3] + 0.091803778958879 x[2,4]
   + 0.0332756910713832 x[2,5] + 0.0182590341530402 x[2,6]
   + 0.0504157871983318 x[2,7] + 0.0530478346006154 x[2,8]
   + 0.0606642423009435 x[2,9] + 0.1104061236426519 x[2,10]
   + 0.0549805457365918 x[2,11] + 0.007374818808331 x[2,12]
   + 0.1112580423670625 x[2,13] + 0.067899193856013 x[2,14]
   + 0.0924904 x[2,15] >= 0
 findWorstP[2,3]: z + 0.0254304096839 cashProportion[2]
   - 0.0254304096839 cashProportion[3] + 0.0463977824682756 x[2,1]
   + 0.0685858149174783 x[2,2] + 0.1077105002161585 x[2,3]
   + 0.091803778958879 x[2,4] + 0.0332756910713832 x[2,5]
   + 0.0182590341530402 x[2,6] + 0.0504157871983318 x[2,7]
   + 0.0530478346006154 x[2,8] + 0.0606642423009435 x[2,9]
   + 0.1104061236426519 x[2,10] + 0.0549805457365918 x[2,11]
   + 0.007374818808331 x[2,12] + 0.1112580423670625 x[2,13]
   + 0.067899193856013 x[2,14] + 0.0924904 x[2,15]
   - 0.0463977824682756 x[3,1] - 0.0685858149174783 x[3,2]
   - 0.1077105002161585 x[3,3] - 0.091803778958879 x[3,4]
   - 0.0332756910713832 x[3,5] - 0.0182590341530402 x[3,6]
   - 0.0504157871983318 x[3,7] - 0.0530478346006154 x[3,8]
   - 0.0606642423009435 x[3,9] - 0.1104061236426519 x[3,10]
   - 0.0549805457365918 x[3,11] - 0.007374818808331 x[3,12]
   - 0.1112580423670625 x[3,13] - 0.067899193856013 x[3,14]
   - 0.0924904 x[3,15] >= 0
 findWorstP[3,1]: z - 0.0268560916329847 cashProportion[1]
   + 0.0268560916329847 cashProportion[3] - 0.0245061836150985 x[1,1]
   - 0.0456956399135234 x[1,2] - 0.0516979763934955 x[1,3]
   - 0.0383504988519021 x[1,4] - 0.00488780867720321 x[1,5]
   - 0.0720414658054813 x[1,6] - 0.1308025942984518 x[1,7]
   - 0.083106175558271 x[1,8] - 0.1097608465040083 x[1,9]
   - 0.0883565414725195 x[1,10] - 0.055175840259967 x[1,11]
   - 0.1289495239757758 x[1,12] - 0.00964133689624149 x[1,13]
   - 0.1281169851351533 x[1,14] - 0.00205449100992333 x[1,15]
   + 0.0245061836150985 x[3,1] + 0.0456956399135234 x[3,2]
   + 0.0516979763934955 x[3,3] + 0.0383504988519021 x[3,4]
   + 0.00488780867720321 x[3,5] + 0.0720414658054813 x[3,6]
   + 0.1308025942984518 x[3,7] + 0.083106175558271 x[3,8]
   + 0.1097608465040083 x[3,9] + 0.0883565414725195 x[3,10]
   + 0.055175840259967 x[3,11] + 0.1289495239757758 x[3,12]
   + 0.00964133689624149 x[3,13] + 0.1281169851351533 x[3,14]
   + 0.00205449100992333 x[3,15] >= 0
 findWorstP[3,2]: z - 0.0268560916329847 cashProportion[2]
   + 0.0268560916329847 cashProportion[3] - 0.0245061836150985 x[2,1]
   - 0.0456956399135234 x[2,2] - 0.0516979763934955 x[2,3]
   - 0.0383504988519021 x[2,4] - 0.00488780867720321 x[2,5]
   - 0.0720414658054813 x[2,6] - 0.1308025942984518 x[2,7]
   - 0.083106175558271 x[2,8] - 0.1097608465040083 x[2,9]
   - 0.0883565414725195 x[2,10] - 0.055175840259967 x[2,11]
   - 0.1289495239757758 x[2,12] - 0.00964133689624149 x[2,13]
   - 0.1281169851351533 x[2,14] - 0.00205449100992333 x[2,15]
   + 0.0245061836150985 x[3,1] + 0.0456956399135234 x[3,2]
   + 0.0516979763934955 x[3,3] + 0.0383504988519021 x[3,4]
   + 0.00488780867720321 x[3,5] + 0.0720414658054813 x[3,6]
   + 0.1308025942984518 x[3,7] + 0.083106175558271 x[3,8]
   + 0.1097608465040083 x[3,9] + 0.0883565414725195 x[3,10]
   + 0.055175840259967 x[3,11] + 0.1289495239757758 x[3,12]
   + 0.00964133689624149 x[3,13] + 0.1281169851351533 x[3,14]
   + 0.00205449100992333 x[3,15] >= 0
Bounds
 z <= 1
 -infinity <= cashProportion[1] <= 1
 -infinity <= cashProportion[2] <= 1
 -infinity <= cashProportion[3] <= 1
Binaries
 x[1,1] x[1,2] x[1,3] x[1,4] x[1,5] x[1,6] x[1,7] x[1,8] x[1,9] x[1,10]
 x[1,11] x[1,12] x[1,13] x[1,14] x[1,15] x[2,1] x[2,2] x[2,3] x[2,4] x[2,5]
 x[2,6] x[2,7] x[2,8] x[2,9] x[2,10] x[2,11] x[2,12] x[2,13] x[2,14]
 x[2,15] x[3,1] x[3,2] x[3,3] x[3,4] x[3,5] x[3,6] x[3,7] x[3,8] x[3,9]
 x[3,10] x[3,11] x[3,12] x[3,13] x[3,14] x[3,15]
End
