data/mps_files/pEFS/55_3.mps
NAME foo
ROWS
 N  OBJ
 E  allocateEach[1]
 E  allocateEach[2]
 E  allocateEach[3]
 E  allocateEach[4]
 E  allocateEach[5]
 E  allocateEach[6]
 E  allocateEach[7]
 E  allocateEach[8]
 E  allocateEach[9]
 E  allocateEach[10]
 E  allocateEach[11]
 E  allocateEach[12]
 E  allocateEach[13]
 E  allocateEach[14]
 E  allocateEach[15]
 E  allocateAllCash
 G  findWorstP[1,2]
 G  findWorstP[1,3]
 G  findWorstP[2,1]
 G  findWorstP[2,3]
 G  findWorstP[3,1]
 G  findWorstP[3,2]
COLUMNS
    z         OBJ       1
    z         findWorstP[1,2]  1
    z         findWorstP[1,3]  1
    z         findWorstP[2,1]  1
    z         findWorstP[2,3]  1
    z         findWorstP[3,1]  1
    z         findWorstP[3,2]  1
    cashProportion[1]  allocateAllCash  1
    cashProportion[1]  findWorstP[1,2]  2.4332380315104325e-02
    cashProportion[1]  findWorstP[1,3]  2.4332380315104325e-02
    cashProportion[1]  findWorstP[2,1]  -2.5430409683900007e-02
    cashProportion[1]  findWorstP[3,1]  -2.6856091632984653e-02
    cashProportion[2]  allocateAllCash  1
    cashProportion[2]  findWorstP[1,2]  -2.4332380315104325e-02
    cashProportion[2]  findWorstP[2,1]  2.5430409683900007e-02
    cashProportion[2]  findWorstP[2,3]  2.5430409683900007e-02
    cashProportion[2]  findWorstP[3,2]  -2.6856091632984653e-02
    cashProportion[3]  allocateAllCash  1
    cashProportion[3]  findWorstP[1,3]  -2.4332380315104325e-02
    cashProportion[3]  findWorstP[2,3]  -2.5430409683900007e-02
    cashProportion[3]  findWorstP[3,1]  2.6856091632984653e-02
    cashProportion[3]  findWorstP[3,2]  2.6856091632984653e-02
    MARKER    'MARKER'                 'INTORG'
    x[1,1]    allocateEach[1]  1
    x[1,1]    findWorstP[1,2]  2.8395887827726746e-02
    x[1,1]    findWorstP[1,3]  2.8395887827726746e-02
    x[1,1]    findWorstP[2,1]  -4.6397782468275563e-02
    x[1,1]    findWorstP[3,1]  -2.4506183615098494e-02
    x[1,2]    allocateEach[2]  1
    x[1,2]    findWorstP[1,2]  3.9053470405742439e-02
    x[1,2]    findWorstP[1,3]  3.9053470405742439e-02
    x[1,2]    findWorstP[2,1]  -6.8585814917478324e-02
    x[1,2]    findWorstP[3,1]  -4.5695639913523385e-02
    x[1,3]    allocateEach[3]  1
    x[1,3]    findWorstP[1,2]  3.9162966117160414e-02
    x[1,3]    findWorstP[1,3]  3.9162966117160414e-02
    x[1,3]    findWorstP[2,1]  -1.0771050021615848e-01
    x[1,3]    findWorstP[3,1]  -5.1697976393495458e-02
    x[1,4]    allocateEach[4]  1
    x[1,4]    findWorstP[1,2]  8.0856499787091668e-02
    x[1,4]    findWorstP[1,3]  8.0856499787091668e-02
    x[1,4]    findWorstP[2,1]  -9.1803778958879020e-02
    x[1,4]    findWorstP[3,1]  -3.8350498851902087e-02
    x[1,5]    allocateEach[5]  1
    x[1,5]    findWorstP[1,2]  6.0319970801143624e-02
    x[1,5]    findWorstP[1,3]  6.0319970801143624e-02
    x[1,5]    findWorstP[2,1]  -3.3275691071383159e-02
    x[1,5]    findWorstP[3,1]  -4.8878086772032071e-03
    x[1,6]    allocateEach[6]  1
    x[1,6]    findWorstP[1,2]  8.2012287852059121e-02
    x[1,6]    findWorstP[1,3]  8.2012287852059121e-02
    x[1,6]    findWorstP[2,1]  -1.8259034153040206e-02
    x[1,6]    findWorstP[3,1]  -7.2041465805481320e-02
    x[1,7]    allocateEach[7]  1
    x[1,7]    findWorstP[1,2]  7.0843725287426246e-02
    x[1,7]    findWorstP[1,3]  7.0843725287426246e-02
    x[1,7]    findWorstP[2,1]  -5.0415787198331764e-02
    x[1,7]    findWorstP[3,1]  -1.3080259429845176e-01
    x[1,8]    allocateEach[8]  1
    x[1,8]    findWorstP[1,2]  1.1042034186994341e-01
    x[1,8]    findWorstP[1,3]  1.1042034186994341e-01
    x[1,8]    findWorstP[2,1]  -5.3047834600615414e-02
    x[1,8]    findWorstP[3,1]  -0.083106175558271
    x[1,9]    allocateEach[9]  1
    x[1,9]    findWorstP[1,2]  8.6744935823346910e-03
    x[1,9]    findWorstP[1,3]  8.6744935823346910e-03
    x[1,9]    findWorstP[2,1]  -6.0664242300943472e-02
    x[1,9]    findWorstP[3,1]  -1.0976084650400827e-01
    x[1,10]   allocateEach[10]  1
    x[1,10]   findWorstP[1,2]  7.8496258896526547e-02
    x[1,10]   findWorstP[1,3]  7.8496258896526547e-02
    x[1,10]   findWorstP[2,1]  -1.1040612364265187e-01
    x[1,10]   findWorstP[3,1]  -0.0883565414725195
    x[1,11]   allocateEach[11]  1
    x[1,11]   findWorstP[1,2]  6.9213455806314245e-02
    x[1,11]   findWorstP[1,3]  6.9213455806314245e-02
    x[1,11]   findWorstP[2,1]  -5.4980545736591814e-02
    x[1,11]   findWorstP[3,1]  -5.5175840259966968e-02
    x[1,12]   allocateEach[12]  1
    x[1,12]   findWorstP[1,2]  1.0634466816716344e-01
    x[1,12]   findWorstP[1,3]  1.0634466816716344e-01
    x[1,12]   findWorstP[2,1]  -7.3748188083310028e-03
    x[1,12]   findWorstP[3,1]  -1.2894952397577580e-01
    x[1,13]   allocateEach[13]  1
    x[1,13]   findWorstP[1,2]  1.2025062351724557e-01
    x[1,13]   findWorstP[1,3]  1.2025062351724557e-01
    x[1,13]   findWorstP[2,1]  -1.1125804236706253e-01
    x[1,13]   findWorstP[3,1]  -9.6413368962414911e-03
    x[1,14]   allocateEach[14]  1
    x[1,14]   findWorstP[1,2]  6.0709288886185292e-03
    x[1,14]   findWorstP[1,3]  6.0709288886185292e-03
    x[1,14]   findWorstP[2,1]  -6.7899193856013021e-02
    x[1,14]   findWorstP[3,1]  -1.2811698513515327e-01
    x[1,15]   allocateEach[15]  1
    x[1,15]   findWorstP[1,2]  7.5552040878398924e-02
    x[1,15]   findWorstP[1,3]  7.5552040878398924e-02
    x[1,15]   findWorstP[2,1]  -9.2490400020344338e-02
    x[1,15]   findWorstP[3,1]  -2.0544910099233259e-03
    x[2,1]    allocateEach[1]  1
    x[2,1]    findWorstP[1,2]  -2.8395887827726746e-02
    x[2,1]    findWorstP[2,1]  4.6397782468275563e-02
    x[2,1]    findWorstP[2,3]  4.6397782468275563e-02
    x[2,1]    findWorstP[3,2]  -2.4506183615098494e-02
    x[2,2]    allocateEach[2]  1
    x[2,2]    findWorstP[1,2]  -3.9053470405742439e-02
    x[2,2]    findWorstP[2,1]  6.8585814917478324e-02
    x[2,2]    findWorstP[2,3]  6.8585814917478324e-02
    x[2,2]    findWorstP[3,2]  -4.5695639913523385e-02
    x[2,3]    allocateEach[3]  1
    x[2,3]    findWorstP[1,2]  -3.9162966117160414e-02
    x[2,3]    findWorstP[2,1]  1.0771050021615848e-01
    x[2,3]    findWorstP[2,3]  1.0771050021615848e-01
    x[2,3]    findWorstP[3,2]  -5.1697976393495458e-02
    x[2,4]    allocateEach[4]  1
    x[2,4]    findWorstP[1,2]  -8.0856499787091668e-02
    x[2,4]    findWorstP[2,1]  9.1803778958879020e-02
    x[2,4]    findWorstP[2,3]  9.1803778958879020e-02
    x[2,4]    findWorstP[3,2]  -3.8350498851902087e-02
    x[2,5]    allocateEach[5]  1
    x[2,5]    findWorstP[1,2]  -6.0319970801143624e-02
    x[2,5]    findWorstP[2,1]  3.3275691071383159e-02
    x[2,5]    findWorstP[2,3]  3.3275691071383159e-02
    x[2,5]    findWorstP[3,2]  -4.8878086772032071e-03
    x[2,6]    allocateEach[6]  1
    x[2,6]    findWorstP[1,2]  -8.2012287852059121e-02
    x[2,6]    findWorstP[2,1]  1.8259034153040206e-02
    x[2,6]    findWorstP[2,3]  1.8259034153040206e-02
    x[2,6]    findWorstP[3,2]  -7.2041465805481320e-02
    x[2,7]    allocateEach[7]  1
    x[2,7]    findWorstP[1,2]  -7.0843725287426246e-02
    x[2,7]    findWorstP[2,1]  5.0415787198331764e-02
    x[2,7]    findWorstP[2,3]  5.0415787198331764e-02
    x[2,7]    findWorstP[3,2]  -1.3080259429845176e-01
    x[2,8]    allocateEach[8]  1
    x[2,8]    findWorstP[1,2]  -1.1042034186994341e-01
    x[2,8]    findWorstP[2,1]  5.3047834600615414e-02
    x[2,8]    findWorstP[2,3]  5.3047834600615414e-02
    x[2,8]    findWorstP[3,2]  -0.083106175558271
    x[2,9]    allocateEach[9]  1
    x[2,9]    findWorstP[1,2]  -8.6744935823346910e-03
    x[2,9]    findWorstP[2,1]  6.0664242300943472e-02
    x[2,9]    findWorstP[2,3]  6.0664242300943472e-02
    x[2,9]    findWorstP[3,2]  -1.0976084650400827e-01
    x[2,10]   allocateEach[10]  1
    x[2,10]   findWorstP[1,2]  -7.8496258896526547e-02
    x[2,10]   findWorstP[2,1]  1.1040612364265187e-01
    x[2,10]   findWorstP[2,3]  1.1040612364265187e-01
    x[2,10]   findWorstP[3,2]  -0.0883565414725195
    x[2,11]   allocateEach[11]  1
    x[2,11]   findWorstP[1,2]  -6.9213455806314245e-02
    x[2,11]   findWorstP[2,1]  5.4980545736591814e-02
    x[2,11]   findWorstP[2,3]  5.4980545736591814e-02
    x[2,11]   findWorstP[3,2]  -5.5175840259966968e-02
    x[2,12]   allocateEach[12]  1
    x[2,12]   findWorstP[1,2]  -1.0634466816716344e-01
    x[2,12]   findWorstP[2,1]  7.3748188083310028e-03
    x[2,12]   findWorstP[2,3]  7.3748188083310028e-03
    x[2,12]   findWorstP[3,2]  -1.2894952397577580e-01
    x[2,13]   allocateEach[13]  1
    x[2,13]   findWorstP[1,2]  -1.2025062351724557e-01
    x[2,13]   findWorstP[2,1]  1.1125804236706253e-01
    x[2,13]   findWorstP[2,3]  1.1125804236706253e-01
    x[2,13]   findWorstP[3,2]  -9.6413368962414911e-03
    x[2,14]   allocateEach[14]  1
    x[2,14]   findWorstP[1,2]  -6.0709288886185292e-03
    x[2,14]   findWorstP[2,1]  6.7899193856013021e-02
    x[2,14]   findWorstP[2,3]  6.7899193856013021e-02
    x[2,14]   findWorstP[3,2]  -1.2811698513515327e-01
    x[2,15]   allocateEach[15]  1
    x[2,15]   findWorstP[1,2]  -7.5552040878398924e-02
    x[2,15]   findWorstP[2,1]  9.2490400020344338e-02
    x[2,15]   findWorstP[2,3]  9.2490400020344338e-02
    x[2,15]   findWorstP[3,2]  -2.0544910099233259e-03
    x[3,1]    allocateEach[1]  1
    x[3,1]    findWorstP[1,3]  -2.8395887827726746e-02
    x[3,1]    findWorstP[2,3]  -4.6397782468275563e-02
    x[3,1]    findWorstP[3,1]  2.4506183615098494e-02
    x[3,1]    findWorstP[3,2]  2.4506183615098494e-02
    x[3,2]    allocateEach[2]  1
    x[3,2]    findWorstP[1,3]  -3.9053470405742439e-02
    x[3,2]    findWorstP[2,3]  -6.8585814917478324e-02
    x[3,2]    findWorstP[3,1]  4.5695639913523385e-02
    x[3,2]    findWorstP[3,2]  4.5695639913523385e-02
    x[3,3]    allocateEach[3]  1
    x[3,3]    findWorstP[1,3]  -3.9162966117160414e-02
    x[3,3]    findWorstP[2,3]  -1.0771050021615848e-01
    x[3,3]    findWorstP[3,1]  5.1697976393495458e-02
    x[3,3]    findWorstP[3,2]  5.1697976393495458e-02
    x[3,4]    allocateEach[4]  1
    x[3,4]    findWorstP[1,3]  -8.0856499787091668e-02
    x[3,4]    findWorstP[2,3]  -9.1803778958879020e-02
    x[3,4]    findWorstP[3,1]  3.8350498851902087e-02
    x[3,4]    findWorstP[3,2]  3.8350498851902087e-02
    x[3,5]    allocateEach[5]  1
    x[3,5]    findWorstP[1,3]  -6.0319970801143624e-02
    x[3,5]    findWorstP[2,3]  -3.3275691071383159e-02
    x[3,5]    findWorstP[3,1]  4.8878086772032071e-03
    x[3,5]    findWorstP[3,2]  4.8878086772032071e-03
    x[3,6]    allocateEach[6]  1
    x[3,6]    findWorstP[1,3]  -8.2012287852059121e-02
    x[3,6]    findWorstP[2,3]  -1.8259034153040206e-02
    x[3,6]    findWorstP[3,1]  7.2041465805481320e-02
    x[3,6]    findWorstP[3,2]  7.2041465805481320e-02
    x[3,7]    allocateEach[7]  1
    x[3,7]    findWorstP[1,3]  -7.0843725287426246e-02
    x[3,7]    findWorstP[2,3]  -5.0415787198331764e-02
    x[3,7]    findWorstP[3,1]  1.3080259429845176e-01
    x[3,7]    findWorstP[3,2]  1.3080259429845176e-01
    x[3,8]    allocateEach[8]  1
    x[3,8]    findWorstP[1,3]  -1.1042034186994341e-01
    x[3,8]    findWorstP[2,3]  -5.3047834600615414e-02
    x[3,8]    findWorstP[3,1]  0.083106175558271
    x[3,8]    findWorstP[3,2]  0.083106175558271
    x[3,9]    allocateEach[9]  1
    x[3,9]    findWorstP[1,3]  -8.6744935823346910e-03
    x[3,9]    findWorstP[2,3]  -6.0664242300943472e-02
    x[3,9]    findWorstP[3,1]  1.0976084650400827e-01
    x[3,9]    findWorstP[3,2]  1.0976084650400827e-01
    x[3,10]   allocateEach[10]  1
    x[3,10]   findWorstP[1,3]  -7.8496258896526547e-02
    x[3,10]   findWorstP[2,3]  -1.1040612364265187e-01
    x[3,10]   findWorstP[3,1]  0.0883565414725195
    x[3,10]   findWorstP[3,2]  0.0883565414725195
    x[3,11]   allocateEach[11]  1
    x[3,11]   findWorstP[1,3]  -6.9213455806314245e-02
    x[3,11]   findWorstP[2,3]  -5.4980545736591814e-02
    x[3,11]   findWorstP[3,1]  5.5175840259966968e-02
    x[3,11]   findWorstP[3,2]  5.5175840259966968e-02
    x[3,12]   allocateEach[12]  1
    x[3,12]   findWorstP[1,3]  -1.0634466816716344e-01
    x[3,12]   findWorstP[2,3]  -7.3748188083310028e-03
    x[3,12]   findWorstP[3,1]  1.2894952397577580e-01
    x[3,12]   findWorstP[3,2]  1.2894952397577580e-01
    x[3,13]   allocateEach[13]  1
    x[3,13]   findWorstP[1,3]  -1.2025062351724557e-01
    x[3,13]   findWorstP[2,3]  -1.1125804236706253e-01
    x[3,13]   findWorstP[3,1]  9.6413368962414911e-03
    x[3,13]   findWorstP[3,2]  9.6413368962414911e-03
    x[3,14]   allocateEach[14]  1
    x[3,14]   findWorstP[1,3]  -6.0709288886185292e-03
    x[3,14]   findWorstP[2,3]  -6.7899193856013021e-02
    x[3,14]   findWorstP[3,1]  1.2811698513515327e-01
    x[3,14]   findWorstP[3,2]  1.2811698513515327e-01
    x[3,15]   allocateEach[15]  1
    x[3,15]   findWorstP[1,3]  -7.5552040878398924e-02
    x[3,15]   findWorstP[2,3]  -9.2490400020344338e-02
    x[3,15]   findWorstP[3,1]  2.0544910099233259e-03
    x[3,15]   findWorstP[3,2]  2.0544910099233259e-03
    MARKER    'MARKER'                 'INTEND'
RHS
    RHS1      allocateEach[1]  1
    RHS1      allocateEach[2]  1
    RHS1      allocateEach[3]  1
    RHS1      allocateEach[4]  1
    RHS1      allocateEach[5]  1
    RHS1      allocateEach[6]  1
    RHS1      allocateEach[7]  1
    RHS1      allocateEach[8]  1
    RHS1      allocateEach[9]  1
    RHS1      allocateEach[10]  1
    RHS1      allocateEach[11]  1
    RHS1      allocateEach[12]  1
    RHS1      allocateEach[13]  1
    RHS1      allocateEach[14]  1
    RHS1      allocateEach[15]  1
    RHS1      allocateAllCash  1
BOUNDS
 UP BND1      z         1
 MI BND1      cashProportion[1]
 UP BND1      cashProportion[1]  1
 MI BND1      cashProportion[2]
 UP BND1      cashProportion[2]  1
 MI BND1      cashProportion[3]
 UP BND1      cashProportion[3]  1
 BV BND1      x[1,1]  
 BV BND1      x[1,2]  
 BV BND1      x[1,3]  
 BV BND1      x[1,4]  
 BV BND1      x[1,5]  
 BV BND1      x[1,6]  
 BV BND1      x[1,7]  
 BV BND1      x[1,8]  
 BV BND1      x[1,9]  
 BV BND1      x[1,10] 
 BV BND1      x[1,11] 
 BV BND1      x[1,12] 
 BV BND1      x[1,13] 
 BV BND1      x[1,14] 
 BV BND1      x[1,15] 
 BV BND1      x[2,1]  
 BV BND1      x[2,2]  
 BV BND1      x[2,3]  
 BV BND1      x[2,4]  
 BV BND1      x[2,5]  
 BV BND1      x[2,6]  
 BV BND1      x[2,7]  
 BV BND1      x[2,8]  
 BV BND1      x[2,9]  
 BV BND1      x[2,10] 
 BV BND1      x[2,11] 
 BV BND1      x[2,12] 
 BV BND1      x[2,13] 
 BV BND1      x[2,14] 
 BV BND1      x[2,15] 
 BV BND1      x[3,1]  
 BV BND1      x[3,2]  
 BV BND1      x[3,3]  
 BV BND1      x[3,4]  
 BV BND1      x[3,5]  
 BV BND1      x[3,6]  
 BV BND1      x[3,7]  
 BV BND1      x[3,8]  
 BV BND1      x[3,9]  
 BV BND1      x[3,10] 
 BV BND1      x[3,11] 
 BV BND1      x[3,12] 
 BV BND1      x[3,13] 
 BV BND1      x[3,14] 
 BV BND1      x[3,15] 
ENDATA
